Al1
1.0
  -1.9844145408862499    0.0000000000000000    1.9844145408862499
   0.0000000000000000    1.9844145408862499    1.9844145408862499
  -1.9844145408862499    1.9844145408862499    0.0000000000000000
Al
1
direct
   0.0000000000000000    0.0000000000000000    0.0000000000000000 Al
