B1 As1
1.0
   0.0000000000000000    2.4096268270609094    2.4096268270609094
   2.4096268270609094    0.0000000000000000    2.4096268270609094
   2.4096268270609094    2.4096268270609094    0.0000000000000000
B As
1 1
direct
   0.7500000538275540    0.7500000538275539    0.7500000538275541 B
   0.0000000000000000    0.0000000000000000    0.0000000000000000 As
