Sr3 Pb1 O1
1.0
   5.18273936    0.00000000    0.00000000
   0.00000000    5.18273936    0.00000000
   0.00000000    0.00000000    5.18273936
Sr Pb O
3 1 1
direct
   0.50000000    0.00000000    0.50000000 Sr
   0.00000000    0.50000000    0.50000000 Sr
   0.50000000    0.50000000    0.00000000 Sr
   0.00000000    0.00000000    0.00000000 Pb
   0.50000000    0.50000000    0.50000000 O
