FCC (face-centered cubic) G-X-W-K-G-L-U-W-L-K U-X
16   ! 16 grids 
Line-mode 
Cartesian
   0.000   0.000   0.000   ! \Gamma 
   0.000   1.000   0.000   ! X 
 
   0.000   1.000   0.000   ! X 
   0.500   1.000   0.000   ! W 
 
   0.500   1.000   0.000   ! W 
   0.750   0.750   0.000   ! K 
 
   0.750   0.750   0.000   ! K 
   0.000   0.000   0.000   ! \Gamma 
 
   0.000   0.000   0.000   ! \Gamma 
   0.500   0.500   0.500   ! L 
 
   0.500   0.500   0.500   ! L 
   0.250   1.000   0.250   ! U 
 
   0.250   1.000   0.250   ! U 
   0.500   1.000   0.000   ! W 
 
   0.500   1.000   0.000   ! W 
   0.500   0.500   0.500   ! L 
 
   0.500   0.500   0.500   ! L 
   0.750   0.750   0.000   ! K 
 
   0.250   1.000   0.250   ! U 
   0.000   1.000   0.000   ! X 

