Ga2 Se2
1.0
   8.7726151600000009   -1.8870903500000000   -0.0065742500000000
   8.7726151600000009    1.8870903500000000   -0.0065742500000000
   8.3691102399999995    0.0000000000000000    3.2369595000000002
Ga Se
2 2
direct
   0.9531866326000000    0.9531866326000000    0.9531866326000000 Ga
   0.0464604835000000    0.0464604835000000    0.0464604835000000 Ga
   0.2423276485000000    0.2423276485000000    0.2423276485000000 Se
   0.4240253623000000    0.4240253623000000    0.4240253623000000 Se
