Ni1
1.0
  -1.75898505    0.00000000    1.75898505
   0.00000000    1.75898505    1.75898505
  -1.75898505    1.75898505    0.00000000
Ni
1
direct
   0.00000000    0.00000000    0.00000000 Ni
