Bi6 Te9
1.0
   2.20906522   -3.82621321    0.00000000
   2.20906522    3.82621321    0.00000000
   0.00000000    0.00000000   32.25729905
Bi Te
6 9
direct
   0.33333333    0.66666667    0.26983690 Bi
   0.33333333    0.66666667    0.06349644 Bi
   0.00000000    0.00000000    0.60317023 Bi
   0.00000000    0.00000000    0.39682977 Bi
   0.66666667    0.33333333    0.93650356 Bi
   0.66666667    0.33333333    0.73016310 Bi
   0.66666667    0.33333333    0.11652559 Te
   0.00000000    0.00000000    0.00000000 Te
   0.00000000    0.00000000    0.21680774 Te
   0.33333333    0.66666667    0.44985893 Te
   0.66666667    0.33333333    0.33333333 Te
   0.66666667    0.33333333    0.55014107 Te
   0.00000000    0.00000000    0.78319226 Te
   0.33333333    0.66666667    0.66666667 Te
   0.33333333    0.66666667    0.88347441 Te
