&CONTROL
  calculation = 'scf'
  etot_conv_thr =   1.5000000000d-04
  forc_conv_thr =   1.0000000000d-04
  outdir = './out/'
  prefix = 'bi2te3'
  pseudo_dir = './pseudo/'
  tprnfor = .true.
  tstress = .true.
  verbosity = 'high'
/
&SYSTEM
  ecutrho =   3.6000000000d+02
  ecutwfc =   4.5000000000d+01
  ibrav = 0
  nat = 15
  nosym = .false.
  ntyp = 2
  occupations = 'fixed'
  noncolin=.true.
  lspinorb=.false.
/
&ELECTRONS
  conv_thr =   3.0000000000d-09
  electron_maxstep = 80
  mixing_beta =   4.0000000000d-01
/
ATOMIC_SPECIES
Bi     208.9804 bi_pbesol_v1.uspp.F.UPF
Te     127.6 te_pbesol_v1.uspp.F.UPF
ATOMIC_POSITIONS angstrom
Bi	2.2090652234	1.2754044014	8.7042094676 0 0 0
Bi	2.2090652234	1.2754044014	2.0482235455 0 0 0
Bi	0.0000000000	0.0000000000	19.4566424807 0 0 0
Bi	0.0000000000	0.0000000000	12.8006565586 0 0 0
Bi	2.2090652234	-1.2754044014	30.20907549370 0 0 0
Bi	2.2090652234	-1.2754044014	23.55308957160 0 0 0
Te	2.2090652234	-1.2754044014	3.7588009099 0 0 0
Te	0.0000000000	0.0000000000	0.0000000000  0 1 0
Te	0.0000000000	0.0000000000	6.9936321032  0 1 0
Te	2.2090652234	1.2754044014	14.5112339229 0 1 0
Te	2.2090652234	-1.2754044014	10.75243301310 0 0 0
Te	2.2090652234	-1.2754044014	17.74606511630 0 0 0
Te	0.0000000000	0.0000000000	25.2636669360 0 0 0
Te	2.2090652234	1.2754044014	21.5048660261 0 0 0
Te	2.2090652234	1.2754044014	28.4984981293 0 0 0
K_POINTS automatic
6 6 2 0 0 0
CELL_PARAMETERS angstrom
      2.2090652234      -3.8262132042       0.0000000000
      2.2090652234       3.8262132042       0.0000000000
      0.0000000000       0.0000000000      32.2572990392
