&control
  calculation = 'scf'
  restart_mode = 'from_scratch'
  prefix = 'x'
  pseudo_dir = '.'
  outdir = './out'
  verbosity = 'high'
  wf_collect = .true.
  max_seconds = 900
/

&system
  ibrav = 0
  celldm(1) = 1.889725989d0
  ecutwfc = 60.0D0
  noncolin = .false.
  lspinorb = .false.
  occupations = 'smearing'
  smearing = 'gaussian'
  degauss = 0.001
  nat = 2
  ntyp = 2
/

&electrons
  diagonalization = 'david'
  conv_thr = 1.0D-7
/

&ions
  ion_dynamics = 'bfgs'
/


ATOMIC_SPECIES
B  1.0  B.upf
As  1.0  As.upf

CELL_PARAMETERS alat
  0.0  2.409627  2.409627
  2.409627  0.0  2.409627
  2.409627  2.409627  0.0

ATOMIC_POSITIONS angstrom 
B  3.6144404999999997  3.6144404999999997  3.6144404999999997
As  0.0  0.0  0.0

K_POINTS crystal
456
    0.0000000000     0.0000000000     0.0000000000 1
    0.0098039216     0.0000000000     0.0098039216 1
    0.0196078431     0.0000000000     0.0196078431 1
    0.0294117647     0.0000000000     0.0294117647 1
    0.0392156863     0.0000000000     0.0392156863 1
    0.0490196078     0.0000000000     0.0490196078 1
    0.0588235294     0.0000000000     0.0588235294 1
    0.0686274510     0.0000000000     0.0686274510 1
    0.0784313725     0.0000000000     0.0784313725 1
    0.0882352941     0.0000000000     0.0882352941 1
    0.0980392157     0.0000000000     0.0980392157 1
    0.1078431373     0.0000000000     0.1078431373 1
    0.1176470588     0.0000000000     0.1176470588 1
    0.1274509804     0.0000000000     0.1274509804 1
    0.1372549020     0.0000000000     0.1372549020 1
    0.1470588235     0.0000000000     0.1470588235 1
    0.1568627451     0.0000000000     0.1568627451 1
    0.1666666667     0.0000000000     0.1666666667 1
    0.1764705882     0.0000000000     0.1764705882 1
    0.1862745098     0.0000000000     0.1862745098 1
    0.1960784314     0.0000000000     0.1960784314 1
    0.2058823529     0.0000000000     0.2058823529 1
    0.2156862745     0.0000000000     0.2156862745 1
    0.2254901961     0.0000000000     0.2254901961 1
    0.2352941176     0.0000000000     0.2352941176 1
    0.2450980392     0.0000000000     0.2450980392 1
    0.2549019608     0.0000000000     0.2549019608 1
    0.2647058824     0.0000000000     0.2647058824 1
    0.2745098039     0.0000000000     0.2745098039 1
    0.2843137255     0.0000000000     0.2843137255 1
    0.2941176471     0.0000000000     0.2941176471 1
    0.3039215686     0.0000000000     0.3039215686 1
    0.3137254902     0.0000000000     0.3137254902 1
    0.3235294118     0.0000000000     0.3235294118 1
    0.3333333333     0.0000000000     0.3333333333 1
    0.3431372549     0.0000000000     0.3431372549 1
    0.3529411765     0.0000000000     0.3529411765 1
    0.3627450980     0.0000000000     0.3627450980 1
    0.3725490196     0.0000000000     0.3725490196 1
    0.3823529412     0.0000000000     0.3823529412 1
    0.3921568627     0.0000000000     0.3921568627 1
    0.4019607843     0.0000000000     0.4019607843 1
    0.4117647059     0.0000000000     0.4117647059 1
    0.4215686275     0.0000000000     0.4215686275 1
    0.4313725490     0.0000000000     0.4313725490 1
    0.4411764706     0.0000000000     0.4411764706 1
    0.4509803922     0.0000000000     0.4509803922 1
    0.4607843137     0.0000000000     0.4607843137 1
    0.4705882353     0.0000000000     0.4705882353 1
    0.4803921569     0.0000000000     0.4803921569 1
    0.4901960784     0.0000000000     0.4901960784 1
    0.5000000000     0.0000000000     0.5000000000 1
    0.5073529412     0.0147058824     0.5073529412 1
    0.5147058824     0.0294117647     0.5147058824 1
    0.5220588235     0.0441176471     0.5220588235 1
    0.5294117647     0.0588235294     0.5294117647 1
    0.5367647059     0.0735294118     0.5367647059 1
    0.5441176471     0.0882352941     0.5441176471 1
    0.5514705882     0.1029411765     0.5514705882 1
    0.5588235294     0.1176470588     0.5588235294 1
    0.5661764706     0.1323529412     0.5661764706 1
    0.5735294118     0.1470588235     0.5735294118 1
    0.5808823529     0.1617647059     0.5808823529 1
    0.5882352941     0.1764705882     0.5882352941 1
    0.5955882353     0.1911764706     0.5955882353 1
    0.6029411765     0.2058823529     0.6029411765 1
    0.6102941176     0.2205882353     0.6102941176 1
    0.6176470588     0.2352941176     0.6176470588 1
    0.6250000000     0.2500000000     0.6250000000 1
    0.3750000000     0.3750000000     0.7500000000 1
    0.3680555556     0.3680555556     0.7361111111 1
    0.3611111111     0.3611111111     0.7222222222 1
    0.3541666667     0.3541666667     0.7083333333 1
    0.3472222222     0.3472222222     0.6944444444 1
    0.3402777778     0.3402777778     0.6805555556 1
    0.3333333333     0.3333333333     0.6666666667 1
    0.3263888889     0.3263888889     0.6527777778 1
    0.3194444444     0.3194444444     0.6388888889 1
    0.3125000000     0.3125000000     0.6250000000 1
    0.3055555556     0.3055555556     0.6111111111 1
    0.2986111111     0.2986111111     0.5972222222 1
    0.2916666667     0.2916666667     0.5833333333 1
    0.2847222222     0.2847222222     0.5694444444 1
    0.2777777778     0.2777777778     0.5555555556 1
    0.2708333333     0.2708333333     0.5416666667 1
    0.2638888889     0.2638888889     0.5277777778 1
    0.2569444444     0.2569444444     0.5138888889 1
    0.2500000000     0.2500000000     0.5000000000 1
    0.2430555556     0.2430555556     0.4861111111 1
    0.2361111111     0.2361111111     0.4722222222 1
    0.2291666667     0.2291666667     0.4583333333 1
    0.2222222222     0.2222222222     0.4444444444 1
    0.2152777778     0.2152777778     0.4305555556 1
    0.2083333333     0.2083333333     0.4166666667 1
    0.2013888889     0.2013888889     0.4027777778 1
    0.1944444444     0.1944444444     0.3888888889 1
    0.1875000000     0.1875000000     0.3750000000 1
    0.1805555556     0.1805555556     0.3611111111 1
    0.1736111111     0.1736111111     0.3472222222 1
    0.1666666667     0.1666666667     0.3333333333 1
    0.1597222222     0.1597222222     0.3194444444 1
    0.1527777778     0.1527777778     0.3055555556 1
    0.1458333333     0.1458333333     0.2916666667 1
    0.1388888889     0.1388888889     0.2777777778 1
    0.1319444444     0.1319444444     0.2638888889 1
    0.1250000000     0.1250000000     0.2500000000 1
    0.1180555556     0.1180555556     0.2361111111 1
    0.1111111111     0.1111111111     0.2222222222 1
    0.1041666667     0.1041666667     0.2083333333 1
    0.0972222222     0.0972222222     0.1944444444 1
    0.0902777778     0.0902777778     0.1805555556 1
    0.0833333333     0.0833333333     0.1666666667 1
    0.0763888889     0.0763888889     0.1527777778 1
    0.0694444444     0.0694444444     0.1388888889 1
    0.0625000000     0.0625000000     0.1250000000 1
    0.0555555556     0.0555555556     0.1111111111 1
    0.0486111111     0.0486111111     0.0972222222 1
    0.0416666667     0.0416666667     0.0833333333 1
    0.0347222222     0.0347222222     0.0694444444 1
    0.0277777778     0.0277777778     0.0555555556 1
    0.0208333333     0.0208333333     0.0416666667 1
    0.0138888889     0.0138888889     0.0277777778 1
    0.0069444444     0.0069444444     0.0138888889 1
    0.0000000000     0.0000000000     0.0000000000 1
    0.0113636364     0.0113636364     0.0113636364 1
    0.0227272727     0.0227272727     0.0227272727 1
    0.0340909091     0.0340909091     0.0340909091 1
    0.0454545455     0.0454545455     0.0454545455 1
    0.0568181818     0.0568181818     0.0568181818 1
    0.0681818182     0.0681818182     0.0681818182 1
    0.0795454545     0.0795454545     0.0795454545 1
    0.0909090909     0.0909090909     0.0909090909 1
    0.1022727273     0.1022727273     0.1022727273 1
    0.1136363636     0.1136363636     0.1136363636 1
    0.1250000000     0.1250000000     0.1250000000 1
    0.1363636364     0.1363636364     0.1363636364 1
    0.1477272727     0.1477272727     0.1477272727 1
    0.1590909091     0.1590909091     0.1590909091 1
    0.1704545455     0.1704545455     0.1704545455 1
    0.1818181818     0.1818181818     0.1818181818 1
    0.1931818182     0.1931818182     0.1931818182 1
    0.2045454545     0.2045454545     0.2045454545 1
    0.2159090909     0.2159090909     0.2159090909 1
    0.2272727273     0.2272727273     0.2272727273 1
    0.2386363636     0.2386363636     0.2386363636 1
    0.2500000000     0.2500000000     0.2500000000 1
    0.2613636364     0.2613636364     0.2613636364 1
    0.2727272727     0.2727272727     0.2727272727 1
    0.2840909091     0.2840909091     0.2840909091 1
    0.2954545455     0.2954545455     0.2954545455 1
    0.3068181818     0.3068181818     0.3068181818 1
    0.3181818182     0.3181818182     0.3181818182 1
    0.3295454545     0.3295454545     0.3295454545 1
    0.3409090909     0.3409090909     0.3409090909 1
    0.3522727273     0.3522727273     0.3522727273 1
    0.3636363636     0.3636363636     0.3636363636 1
    0.3750000000     0.3750000000     0.3750000000 1
    0.3863636364     0.3863636364     0.3863636364 1
    0.3977272727     0.3977272727     0.3977272727 1
    0.4090909091     0.4090909091     0.4090909091 1
    0.4204545455     0.4204545455     0.4204545455 1
    0.4318181818     0.4318181818     0.4318181818 1
    0.4431818182     0.4431818182     0.4431818182 1
    0.4545454545     0.4545454545     0.4545454545 1
    0.4659090909     0.4659090909     0.4659090909 1
    0.4772727273     0.4772727273     0.4772727273 1
    0.4886363636     0.4886363636     0.4886363636 1
    0.5000000000     0.5000000000     0.5000000000 1
    0.5000000000     0.4928571429     0.5071428571 1
    0.5000000000     0.4857142857     0.5142857143 1
    0.5000000000     0.4785714286     0.5214285714 1
    0.5000000000     0.4714285714     0.5285714286 1
    0.5000000000     0.4642857143     0.5357142857 1
    0.5000000000     0.4571428571     0.5428571429 1
    0.5000000000     0.4500000000     0.5500000000 1
    0.5000000000     0.4428571429     0.5571428571 1
    0.5000000000     0.4357142857     0.5642857143 1
    0.5000000000     0.4285714286     0.5714285714 1
    0.5000000000     0.4214285714     0.5785714286 1
    0.5000000000     0.4142857143     0.5857142857 1
    0.5000000000     0.4071428571     0.5928571429 1
    0.5000000000     0.4000000000     0.6000000000 1
    0.5000000000     0.3928571429     0.6071428571 1
    0.5000000000     0.3857142857     0.6142857143 1
    0.5000000000     0.3785714286     0.6214285714 1
    0.5000000000     0.3714285714     0.6285714286 1
    0.5000000000     0.3642857143     0.6357142857 1
    0.5000000000     0.3571428571     0.6428571429 1
    0.5000000000     0.3500000000     0.6500000000 1
    0.5000000000     0.3428571429     0.6571428571 1
    0.5000000000     0.3357142857     0.6642857143 1
    0.5000000000     0.3285714286     0.6714285714 1
    0.5000000000     0.3214285714     0.6785714286 1
    0.5000000000     0.3142857143     0.6857142857 1
    0.5000000000     0.3071428571     0.6928571429 1
    0.5000000000     0.3000000000     0.7000000000 1
    0.5000000000     0.2928571429     0.7071428571 1
    0.5000000000     0.2857142857     0.7142857143 1
    0.5000000000     0.2785714286     0.7214285714 1
    0.5000000000     0.2714285714     0.7285714286 1
    0.5000000000     0.2642857143     0.7357142857 1
    0.5000000000     0.2571428571     0.7428571429 1
    0.5000000000     0.2500000000     0.7500000000 1
    0.5000000000     0.2400000000     0.7400000000 1
    0.5000000000     0.2300000000     0.7300000000 1
    0.5000000000     0.2200000000     0.7200000000 1
    0.5000000000     0.2100000000     0.7100000000 1
    0.5000000000     0.2000000000     0.7000000000 1
    0.5000000000     0.1900000000     0.6900000000 1
    0.5000000000     0.1800000000     0.6800000000 1
    0.5000000000     0.1700000000     0.6700000000 1
    0.5000000000     0.1600000000     0.6600000000 1
    0.5000000000     0.1500000000     0.6500000000 1
    0.5000000000     0.1400000000     0.6400000000 1
    0.5000000000     0.1300000000     0.6300000000 1
    0.5000000000     0.1200000000     0.6200000000 1
    0.5000000000     0.1100000000     0.6100000000 1
    0.5000000000     0.1000000000     0.6000000000 1
    0.5000000000     0.0900000000     0.5900000000 1
    0.5000000000     0.0800000000     0.5800000000 1
    0.5000000000     0.0700000000     0.5700000000 1
    0.5000000000     0.0600000000     0.5600000000 1
    0.5000000000     0.0500000000     0.5500000000 1
    0.5000000000     0.0400000000     0.5400000000 1
    0.5000000000     0.0300000000     0.5300000000 1
    0.5000000000     0.0200000000     0.5200000000 1
    0.5000000000     0.0100000000     0.5100000000 1
    0.5000000000     0.0000000000     0.5000000000 1
    0.0000000000     0.0000000000     0.0000000000 1
   -0.0098039216     0.0000000000    -0.0098039216 1
   -0.0196078431     0.0000000000    -0.0196078431 1
   -0.0294117647     0.0000000000    -0.0294117647 1
   -0.0392156863     0.0000000000    -0.0392156863 1
   -0.0490196078     0.0000000000    -0.0490196078 1
   -0.0588235294     0.0000000000    -0.0588235294 1
   -0.0686274510     0.0000000000    -0.0686274510 1
   -0.0784313725     0.0000000000    -0.0784313725 1
   -0.0882352941     0.0000000000    -0.0882352941 1
   -0.0980392157     0.0000000000    -0.0980392157 1
   -0.1078431373     0.0000000000    -0.1078431373 1
   -0.1176470588     0.0000000000    -0.1176470588 1
   -0.1274509804     0.0000000000    -0.1274509804 1
   -0.1372549020     0.0000000000    -0.1372549020 1
   -0.1470588235     0.0000000000    -0.1470588235 1
   -0.1568627451     0.0000000000    -0.1568627451 1
   -0.1666666667     0.0000000000    -0.1666666667 1
   -0.1764705882     0.0000000000    -0.1764705882 1
   -0.1862745098     0.0000000000    -0.1862745098 1
   -0.1960784314     0.0000000000    -0.1960784314 1
   -0.2058823529     0.0000000000    -0.2058823529 1
   -0.2156862745     0.0000000000    -0.2156862745 1
   -0.2254901961     0.0000000000    -0.2254901961 1
   -0.2352941176     0.0000000000    -0.2352941176 1
   -0.2450980392     0.0000000000    -0.2450980392 1
   -0.2549019608     0.0000000000    -0.2549019608 1
   -0.2647058824     0.0000000000    -0.2647058824 1
   -0.2745098039     0.0000000000    -0.2745098039 1
   -0.2843137255     0.0000000000    -0.2843137255 1
   -0.2941176471     0.0000000000    -0.2941176471 1
   -0.3039215686     0.0000000000    -0.3039215686 1
   -0.3137254902     0.0000000000    -0.3137254902 1
   -0.3235294118     0.0000000000    -0.3235294118 1
   -0.3333333333     0.0000000000    -0.3333333333 1
   -0.3431372549     0.0000000000    -0.3431372549 1
   -0.3529411765     0.0000000000    -0.3529411765 1
   -0.3627450980     0.0000000000    -0.3627450980 1
   -0.3725490196     0.0000000000    -0.3725490196 1
   -0.3823529412     0.0000000000    -0.3823529412 1
   -0.3921568627     0.0000000000    -0.3921568627 1
   -0.4019607843     0.0000000000    -0.4019607843 1
   -0.4117647059     0.0000000000    -0.4117647059 1
   -0.4215686275     0.0000000000    -0.4215686275 1
   -0.4313725490     0.0000000000    -0.4313725490 1
   -0.4411764706     0.0000000000    -0.4411764706 1
   -0.4509803922     0.0000000000    -0.4509803922 1
   -0.4607843137     0.0000000000    -0.4607843137 1
   -0.4705882353     0.0000000000    -0.4705882353 1
   -0.4803921569     0.0000000000    -0.4803921569 1
   -0.4901960784     0.0000000000    -0.4901960784 1
   -0.5000000000     0.0000000000    -0.5000000000 1
   -0.5073529412    -0.0147058824    -0.5073529412 1
   -0.5147058824    -0.0294117647    -0.5147058824 1
   -0.5220588235    -0.0441176471    -0.5220588235 1
   -0.5294117647    -0.0588235294    -0.5294117647 1
   -0.5367647059    -0.0735294118    -0.5367647059 1
   -0.5441176471    -0.0882352941    -0.5441176471 1
   -0.5514705882    -0.1029411765    -0.5514705882 1
   -0.5588235294    -0.1176470588    -0.5588235294 1
   -0.5661764706    -0.1323529412    -0.5661764706 1
   -0.5735294118    -0.1470588235    -0.5735294118 1
   -0.5808823529    -0.1617647059    -0.5808823529 1
   -0.5882352941    -0.1764705882    -0.5882352941 1
   -0.5955882353    -0.1911764706    -0.5955882353 1
   -0.6029411765    -0.2058823529    -0.6029411765 1
   -0.6102941176    -0.2205882353    -0.6102941176 1
   -0.6176470588    -0.2352941176    -0.6176470588 1
   -0.6250000000    -0.2500000000    -0.6250000000 1
   -0.3750000000    -0.3750000000    -0.7500000000 1
   -0.3680555556    -0.3680555556    -0.7361111111 1
   -0.3611111111    -0.3611111111    -0.7222222222 1
   -0.3541666667    -0.3541666667    -0.7083333333 1
   -0.3472222222    -0.3472222222    -0.6944444444 1
   -0.3402777778    -0.3402777778    -0.6805555556 1
   -0.3333333333    -0.3333333333    -0.6666666667 1
   -0.3263888889    -0.3263888889    -0.6527777778 1
   -0.3194444444    -0.3194444444    -0.6388888889 1
   -0.3125000000    -0.3125000000    -0.6250000000 1
   -0.3055555556    -0.3055555556    -0.6111111111 1
   -0.2986111111    -0.2986111111    -0.5972222222 1
   -0.2916666667    -0.2916666667    -0.5833333333 1
   -0.2847222222    -0.2847222222    -0.5694444444 1
   -0.2777777778    -0.2777777778    -0.5555555556 1
   -0.2708333333    -0.2708333333    -0.5416666667 1
   -0.2638888889    -0.2638888889    -0.5277777778 1
   -0.2569444444    -0.2569444444    -0.5138888889 1
   -0.2500000000    -0.2500000000    -0.5000000000 1
   -0.2430555556    -0.2430555556    -0.4861111111 1
   -0.2361111111    -0.2361111111    -0.4722222222 1
   -0.2291666667    -0.2291666667    -0.4583333333 1
   -0.2222222222    -0.2222222222    -0.4444444444 1
   -0.2152777778    -0.2152777778    -0.4305555556 1
   -0.2083333333    -0.2083333333    -0.4166666667 1
   -0.2013888889    -0.2013888889    -0.4027777778 1
   -0.1944444444    -0.1944444444    -0.3888888889 1
   -0.1875000000    -0.1875000000    -0.3750000000 1
   -0.1805555556    -0.1805555556    -0.3611111111 1
   -0.1736111111    -0.1736111111    -0.3472222222 1
   -0.1666666667    -0.1666666667    -0.3333333333 1
   -0.1597222222    -0.1597222222    -0.3194444444 1
   -0.1527777778    -0.1527777778    -0.3055555556 1
   -0.1458333333    -0.1458333333    -0.2916666667 1
   -0.1388888889    -0.1388888889    -0.2777777778 1
   -0.1319444444    -0.1319444444    -0.2638888889 1
   -0.1250000000    -0.1250000000    -0.2500000000 1
   -0.1180555556    -0.1180555556    -0.2361111111 1
   -0.1111111111    -0.1111111111    -0.2222222222 1
   -0.1041666667    -0.1041666667    -0.2083333333 1
   -0.0972222222    -0.0972222222    -0.1944444444 1
   -0.0902777778    -0.0902777778    -0.1805555556 1
   -0.0833333333    -0.0833333333    -0.1666666667 1
   -0.0763888889    -0.0763888889    -0.1527777778 1
   -0.0694444444    -0.0694444444    -0.1388888889 1
   -0.0625000000    -0.0625000000    -0.1250000000 1
   -0.0555555556    -0.0555555556    -0.1111111111 1
   -0.0486111111    -0.0486111111    -0.0972222222 1
   -0.0416666667    -0.0416666667    -0.0833333333 1
   -0.0347222222    -0.0347222222    -0.0694444444 1
   -0.0277777778    -0.0277777778    -0.0555555556 1
   -0.0208333333    -0.0208333333    -0.0416666667 1
   -0.0138888889    -0.0138888889    -0.0277777778 1
   -0.0069444444    -0.0069444444    -0.0138888889 1
    0.0000000000     0.0000000000     0.0000000000 1
   -0.0113636364    -0.0113636364    -0.0113636364 1
   -0.0227272727    -0.0227272727    -0.0227272727 1
   -0.0340909091    -0.0340909091    -0.0340909091 1
   -0.0454545455    -0.0454545455    -0.0454545455 1
   -0.0568181818    -0.0568181818    -0.0568181818 1
   -0.0681818182    -0.0681818182    -0.0681818182 1
   -0.0795454545    -0.0795454545    -0.0795454545 1
   -0.0909090909    -0.0909090909    -0.0909090909 1
   -0.1022727273    -0.1022727273    -0.1022727273 1
   -0.1136363636    -0.1136363636    -0.1136363636 1
   -0.1250000000    -0.1250000000    -0.1250000000 1
   -0.1363636364    -0.1363636364    -0.1363636364 1
   -0.1477272727    -0.1477272727    -0.1477272727 1
   -0.1590909091    -0.1590909091    -0.1590909091 1
   -0.1704545455    -0.1704545455    -0.1704545455 1
   -0.1818181818    -0.1818181818    -0.1818181818 1
   -0.1931818182    -0.1931818182    -0.1931818182 1
   -0.2045454545    -0.2045454545    -0.2045454545 1
   -0.2159090909    -0.2159090909    -0.2159090909 1
   -0.2272727273    -0.2272727273    -0.2272727273 1
   -0.2386363636    -0.2386363636    -0.2386363636 1
   -0.2500000000    -0.2500000000    -0.2500000000 1
   -0.2613636364    -0.2613636364    -0.2613636364 1
   -0.2727272727    -0.2727272727    -0.2727272727 1
   -0.2840909091    -0.2840909091    -0.2840909091 1
   -0.2954545455    -0.2954545455    -0.2954545455 1
   -0.3068181818    -0.3068181818    -0.3068181818 1
   -0.3181818182    -0.3181818182    -0.3181818182 1
   -0.3295454545    -0.3295454545    -0.3295454545 1
   -0.3409090909    -0.3409090909    -0.3409090909 1
   -0.3522727273    -0.3522727273    -0.3522727273 1
   -0.3636363636    -0.3636363636    -0.3636363636 1
   -0.3750000000    -0.3750000000    -0.3750000000 1
   -0.3863636364    -0.3863636364    -0.3863636364 1
   -0.3977272727    -0.3977272727    -0.3977272727 1
   -0.4090909091    -0.4090909091    -0.4090909091 1
   -0.4204545455    -0.4204545455    -0.4204545455 1
   -0.4318181818    -0.4318181818    -0.4318181818 1
   -0.4431818182    -0.4431818182    -0.4431818182 1
   -0.4545454545    -0.4545454545    -0.4545454545 1
   -0.4659090909    -0.4659090909    -0.4659090909 1
   -0.4772727273    -0.4772727273    -0.4772727273 1
   -0.4886363636    -0.4886363636    -0.4886363636 1
   -0.5000000000    -0.5000000000    -0.5000000000 1
   -0.5000000000    -0.4928571429    -0.5071428571 1
   -0.5000000000    -0.4857142857    -0.5142857143 1
   -0.5000000000    -0.4785714286    -0.5214285714 1
   -0.5000000000    -0.4714285714    -0.5285714286 1
   -0.5000000000    -0.4642857143    -0.5357142857 1
   -0.5000000000    -0.4571428571    -0.5428571429 1
   -0.5000000000    -0.4500000000    -0.5500000000 1
   -0.5000000000    -0.4428571429    -0.5571428571 1
   -0.5000000000    -0.4357142857    -0.5642857143 1
   -0.5000000000    -0.4285714286    -0.5714285714 1
   -0.5000000000    -0.4214285714    -0.5785714286 1
   -0.5000000000    -0.4142857143    -0.5857142857 1
   -0.5000000000    -0.4071428571    -0.5928571429 1
   -0.5000000000    -0.4000000000    -0.6000000000 1
   -0.5000000000    -0.3928571429    -0.6071428571 1
   -0.5000000000    -0.3857142857    -0.6142857143 1
   -0.5000000000    -0.3785714286    -0.6214285714 1
   -0.5000000000    -0.3714285714    -0.6285714286 1
   -0.5000000000    -0.3642857143    -0.6357142857 1
   -0.5000000000    -0.3571428571    -0.6428571429 1
   -0.5000000000    -0.3500000000    -0.6500000000 1
   -0.5000000000    -0.3428571429    -0.6571428571 1
   -0.5000000000    -0.3357142857    -0.6642857143 1
   -0.5000000000    -0.3285714286    -0.6714285714 1
   -0.5000000000    -0.3214285714    -0.6785714286 1
   -0.5000000000    -0.3142857143    -0.6857142857 1
   -0.5000000000    -0.3071428571    -0.6928571429 1
   -0.5000000000    -0.3000000000    -0.7000000000 1
   -0.5000000000    -0.2928571429    -0.7071428571 1
   -0.5000000000    -0.2857142857    -0.7142857143 1
   -0.5000000000    -0.2785714286    -0.7214285714 1
   -0.5000000000    -0.2714285714    -0.7285714286 1
   -0.5000000000    -0.2642857143    -0.7357142857 1
   -0.5000000000    -0.2571428571    -0.7428571429 1
   -0.5000000000    -0.2500000000    -0.7500000000 1
   -0.5000000000    -0.2400000000    -0.7400000000 1
   -0.5000000000    -0.2300000000    -0.7300000000 1
   -0.5000000000    -0.2200000000    -0.7200000000 1
   -0.5000000000    -0.2100000000    -0.7100000000 1
   -0.5000000000    -0.2000000000    -0.7000000000 1
   -0.5000000000    -0.1900000000    -0.6900000000 1
   -0.5000000000    -0.1800000000    -0.6800000000 1
   -0.5000000000    -0.1700000000    -0.6700000000 1
   -0.5000000000    -0.1600000000    -0.6600000000 1
   -0.5000000000    -0.1500000000    -0.6500000000 1
   -0.5000000000    -0.1400000000    -0.6400000000 1
   -0.5000000000    -0.1300000000    -0.6300000000 1
   -0.5000000000    -0.1200000000    -0.6200000000 1
   -0.5000000000    -0.1100000000    -0.6100000000 1
   -0.5000000000    -0.1000000000    -0.6000000000 1
   -0.5000000000    -0.0900000000    -0.5900000000 1
   -0.5000000000    -0.0800000000    -0.5800000000 1
   -0.5000000000    -0.0700000000    -0.5700000000 1
   -0.5000000000    -0.0600000000    -0.5600000000 1
   -0.5000000000    -0.0500000000    -0.5500000000 1
   -0.5000000000    -0.0400000000    -0.5400000000 1
   -0.5000000000    -0.0300000000    -0.5300000000 1
   -0.5000000000    -0.0200000000    -0.5200000000 1
   -0.5000000000    -0.0100000000    -0.5100000000 1
   -0.5000000000     0.0000000000    -0.5000000000 1
