Si2
1.0
  -2.71467909    0.00000000    2.71467909
   0.00000000    2.71467909    2.71467909
  -2.71467909    2.71467909    0.00000000
Si
2
direct
   0.00000000    0.00000000    0.00000000 Si
  -0.25000000    0.75000000   -0.25000000 Si
